p cnf 39 126
3 -1 0
3 -2 0
1 2 -3 0
-5 -4 0
-5 4 0
5 4 -6 0
-5 -4 -6 0
5 -4 6 0
-5 4 6 0
6 -4 -7 0
-6 4 -7 0
6 4 7 0
-6 -4 7 0
-9 -6 0
-9 -8 0
6 8 9 0
-10 -9 0
-10 5 0
9 -5 10 0
-7 10 -11 0
7 -10 -11 0
-7 -10 11 0
7 10 11 0
-12 3 0
-12 11 0
-3 -11 12 0
15 8 0
15 14 0
-8 -14 -15 0
-16 15 0
-16 8 0
-15 -8 16 0
17 13 0
17 16 0
-13 -16 -17 0
19 17 0
19 -18 0
-17 18 -19 0
-19 -16 -20 0
19 16 -20 0
-19 16 20 0
19 -16 20 0
-13 4 -21 0
13 -4 -21 0
-13 -4 21 0
13 4 21 0
-23 22 0
-23 -1 0
-22 1 23 0
24 -6 -25 0
-24 6 -25 0
24 6 25 0
-24 -6 25 0
26 -23 0
26 25 0
23 -25 -26 0
28 14 0
28 -23 0
-14 23 -28 0
29 -27 0
29 28 0
27 -28 -29 0
-30 26 0
-30 29 0
-26 -29 30 0
31 2 0
31 5 0
-2 -5 -31 0
-16 31 -32 0
16 -31 -32 0
-16 -31 32 0
16 31 32 0
-33 -32 0
-33 -4 0
32 4 33 0
-30 -33 -34 0
30 33 -34 0
-30 33 34 0
30 -33 34 0
35 -21 0
35 34 0
21 -34 -35 0
20 -35 -36 0
-20 35 -36 0
20 35 36 0
-20 -35 36 0
5 9 -37 0
-5 -9 -37 0
5 -9 37 0
-5 9 37 0
-38 -36 0
-38 -37 0
36 37 38 0
39 -12 0
39 38 0
12 -38 -39 0
-34 10 -20 -9 25 0
-16 4 24 20 0
-3 -4 15 19 0
3 7 -1 -14 0
5 6 3 33 -15 0
-31 -3 14 16 1 0
-23 -13 27 -25 0
4 -25 14 39 0
-39 -15 -22 -37 0
31 21 0
-7 25 -8 33 -5 0
18 -14 -10 39 -3 0
-10 -24 0
-5 16 9 -14 -36 0
1 38 34 0
21 33 -8 0
13 -4 25 0
22 23 25 2 0
-9 18 29 -34 -36 0
16 29 39 0
-33 20 19 0
-32 37 19 -13 34 -17 0
-28 13 -3 0
-22 -32 8 -37 0
-26 -36 -22 0
-1 -2 0
26 16 -27 0
3 22 37 -16 9 0
-8 -1 37 0
39 0
